nN = 5;
nR = 30;
nH = 1;

a = [[15, 16, 12, 17, 12, 15, 19, 15, 19, 17, 25, 17, 19, 15, 20, 16, 12, 16, 13, 22, 16, 16, 14, 21, 21, 24, 13, 25, 21, 22], [12, 20, 11, 13, 22, 15, 14, 22, 21, 10, 24, 22, 23, 14, 14, 22, 22, 17, 14, 19, 21, 11, 20, 21, 14, 23, 10, 17, 24, 22], [19, 19, 16, 11, 18, 20, 18, 22, 21, 15, 22, 23, 16, 23, 18, 18, 18, 22, 21, 12, 20, 18, 13, 25, 10, 23, 21, 24, 22, 18], [23, 12, 13, 12, 24, 23, 11, 20, 14, 20, 19, 14, 19, 22, 24, 13, 10, 16, 12, 23, 18, 24, 24, 18, 25, 10, 18, 18, 19, 15], [15, 13, 16, 23, 19, 21, 15, 12, 18, 21, 12, 18, 21, 16, 17, 14, 13, 14, 19, 18, 21, 12, 14, 17, 15, 24, 21, 13, 11, 24]];
c = [[[0, 0, 0, 0, 0, 0, 0, 0, 0, 0, 0, 0, 0, 0, 0, 0, 0, 0, 0, 0, 0, 0, 0, 0, 0, 0, 0, 0, 0, 0], [41, 44, 46, 42, 49, 48, 36, 43, 47, 42, 45, 34, 45, 35, 47, 48, 33, 38, 41, 35, 46, 48, 46, 43, 33, 31, 47, 48, 39, 31], [32, 49, 49, 36, 41, 36, 39, 42, 48, 49, 35, 39, 44, 42, 30, 44, 36, 49, 35, 37, 46, 48, 49, 40, 48, 43, 30, 39, 45, 37], [49, 35, 33, 36, 38, 40, 30, 46, 49, 43, 45, 48, 41, 42, 42, 31, 33, 36, 46, 31, 46, 35, 45, 47, 33, 31, 46, 31, 32, 43], [34, 30, 48, 39, 49, 50, 37, 50, 33, 33, 34, 45, 30, 36, 40, 30, 40, 30, 50, 39, 39, 35, 33, 44, 48, 48, 31, 38, 39, 44]], [[0, 0, 0, 0, 0, 0, 0, 0, 0, 0, 0, 0, 0, 0, 0, 0, 0, 0, 0, 0, 0, 0, 0, 0, 0, 0, 0, 0, 0, 0], [0, 0, 0, 0, 0, 0, 0, 0, 0, 0, 0, 0, 0, 0, 0, 0, 0, 0, 0, 0, 0, 0, 0, 0, 0, 0, 0, 0, 0, 0], [46, 46, 46, 31, 35, 36, 31, 45, 46, 36, 35, 43, 30, 30, 33, 50, 48, 43, 32, 34, 32, 43, 45, 49, 45, 42, 36, 30, 46, 44], [45, 49, 45, 39, 37, 32, 35, 44, 41, 50, 40, 45, 38, 43, 46, 46, 37, 32, 49, 33, 46, 50, 41, 33, 46, 36, 47, 37, 50, 34], [45, 34, 31, 42, 49, 45, 36, 47, 45, 50, 34, 45, 34, 47, 36, 42, 36, 39, 47, 50, 44, 48, 42, 31, 41, 43, 42, 48, 41, 42]], [[0, 0, 0, 0, 0, 0, 0, 0, 0, 0, 0, 0, 0, 0, 0, 0, 0, 0, 0, 0, 0, 0, 0, 0, 0, 0, 0, 0, 0, 0], [0, 0, 0, 0, 0, 0, 0, 0, 0, 0, 0, 0, 0, 0, 0, 0, 0, 0, 0, 0, 0, 0, 0, 0, 0, 0, 0, 0, 0, 0], [0, 0, 0, 0, 0, 0, 0, 0, 0, 0, 0, 0, 0, 0, 0, 0, 0, 0, 0, 0, 0, 0, 0, 0, 0, 0, 0, 0, 0, 0], [30, 34, 37, 42, 43, 47, 43, 33, 46, 49, 39, 48, 43, 42, 49, 41, 35, 30, 48, 49, 30, 47, 37, 47, 42, 38, 40, 32, 50, 45], [36, 31, 32, 34, 31, 41, 38, 35, 41, 49, 42, 39, 35, 47, 44, 48, 44, 32, 47, 39, 30, 48, 36, 48, 49, 50, 48, 48, 34, 50]], [[0, 0, 0, 0, 0, 0, 0, 0, 0, 0, 0, 0, 0, 0, 0, 0, 0, 0, 0, 0, 0, 0, 0, 0, 0, 0, 0, 0, 0, 0], [0, 0, 0, 0, 0, 0, 0, 0, 0, 0, 0, 0, 0, 0, 0, 0, 0, 0, 0, 0, 0, 0, 0, 0, 0, 0, 0, 0, 0, 0], [0, 0, 0, 0, 0, 0, 0, 0, 0, 0, 0, 0, 0, 0, 0, 0, 0, 0, 0, 0, 0, 0, 0, 0, 0, 0, 0, 0, 0, 0], [0, 0, 0, 0, 0, 0, 0, 0, 0, 0, 0, 0, 0, 0, 0, 0, 0, 0, 0, 0, 0, 0, 0, 0, 0, 0, 0, 0, 0, 0], [34, 32, 33, 40, 32, 46, 47, 41, 39, 32, 31, 42, 30, 43, 30, 30, 36, 48, 48, 32, 39, 36, 35, 45, 46, 31, 39, 50, 31, 50]], [[0, 0, 0, 0, 0, 0, 0, 0, 0, 0, 0, 0, 0, 0, 0, 0, 0, 0, 0, 0, 0, 0, 0, 0, 0, 0, 0, 0, 0, 0], [0, 0, 0, 0, 0, 0, 0, 0, 0, 0, 0, 0, 0, 0, 0, 0, 0, 0, 0, 0, 0, 0, 0, 0, 0, 0, 0, 0, 0, 0], [0, 0, 0, 0, 0, 0, 0, 0, 0, 0, 0, 0, 0, 0, 0, 0, 0, 0, 0, 0, 0, 0, 0, 0, 0, 0, 0, 0, 0, 0], [0, 0, 0, 0, 0, 0, 0, 0, 0, 0, 0, 0, 0, 0, 0, 0, 0, 0, 0, 0, 0, 0, 0, 0, 0, 0, 0, 0, 0, 0], [0, 0, 0, 0, 0, 0, 0, 0, 0, 0, 0, 0, 0, 0, 0, 0, 0, 0, 0, 0, 0, 0, 0, 0, 0, 0, 0, 0, 0, 0]]];

q = [[[7], [13], [21], [19], [10], [23], [14], [16], [13], [16], [17], [11], [23], [20], [9], [24], [24], [19], [18], [21], [18], [18], [18], [17], [24], [19], [9], [9], [7], [13]], [[12], [12], [23], [23], [6], [24], [13], [24], [16], [17], [9], [15], [5], [20], [19], [17], [16], [13], [8], [13], [24], [5], [6], [25], [10], [16], [23], [8], [6], [13]], [[11], [17], [17], [21], [12], [13], [16], [17], [15], [11], [16], [20], [23], [18], [14], [24], [23], [21], [6], [20], [13], [10], [20], [15], [20], [10], [8], [23], [24], [18]], [[18], [23], [13], [8], [15], [12], [16], [13], [9], [6], [12], [13], [13], [14], [18], [6], [6], [7], [12], [10], [22], [10], [8], [8], [9], [18], [5], [7], [21], [22]], [[22], [7], [7], [13], [12], [15], [13], [12], [23], [16], [21], [9], [15], [16], [6], [18], [11], [16], [22], [6], [9], [7], [15], [9], [6], [16], [17], [23], [5], [10]]];
Q = [[79], [72], [79], [61], [64]];
